3978261.0
3900985.0
4093260.0
3915945.0
3980142.0
3695758.0
3804801.0
4087451.0
4312122.0
3181363.0
3460763.0
3531435.0
3685177.0
4445888.0
4171532.0
3451575.0
3952229.0
3698301.0
4558028.0
4352862.0
3509569.0
4465676.0
3393251.0
3456005.0
3944857.0
3626845.0
3896155.0
4294737.0
3904028.0
3883908.0